COLUMNS

passenger_count
pickup_ID
dropoff_ID
request_time_sec
pickup_district
dropoff_district
LDuals
IDuals
vehicle_ID
pick_position
drop_position

REQUESTS_INFO
1      213       604       28835     266       189       180       180       6         1         3         
1      827       431       28875     291       52        127       127       8         1         3         
1      333       652       28861     119       189       179       179       28        1         4         
3      465       417       28874     199       100       167       167       57        1         2         
1      488       697       28889     199       189       141       141       73        1         2         
1      928       512       28829     290       199       168       168       78        1         2         
1      395       395       28845     100       100       193       193       88        1         2         
3      1148      1001      28815     291       291       236       236       90        1         2         
1      1249      1281      28857     129       192       175       175       105       1         2         
1      293       504       28852     87        52        198       198       106       1         4         
1      345       601       28874     299       189       190       190       116       1         2         
1      251       326       28832     127       299       166       166       117       1         2         
1      1129      959       28810     291       291       183       183       121       1         4         
2      1091      939       28837     291       291       211       211       194       1         2         
3      1091      939       28837     291       291       211       211       201       1         3         
1      528       859       28882     52        290       113       113       212       1         3         
1      306       371       28776     299       52        259       259       213       1         2         
1      374       507       28882     119       189       155       155       223       1         4         
1      374       504       28883     119       52        167       167       223       2         3         
1      314       629       28860     119       189       201       201       234       1         2         
1      513       557       28833     199       189       149       149       262       1         2         
4      255       673       28244     87        189       813       813       264       1         2         
1      583       780       28867     189       291       135       135       277       1         3         
3      465       417       28874     199       100       167       167       310       1         2         
1      256       269       28815     87        127       222       222       327       1         4         
1      804       873       28885     291       291       133       133       333       1         2         
1      325       623       28815     299       280       208       208       370       1         3         
1      330       504       28843     127       52        259       259       377       1         3         
2      399       534       28739     168       199       316       316       435       1         2         
1      743       833       28846     290       50        162       162       440       1         2         
1      1045      1131      28888     291       291       138       138       443       1         3         
4      972       883       28861     290       290       120       120       452       1         2         
2      597       577       28886     131       189       118       118       480       1         2         
1      926       675       28854     290       189       131       131       496       1         2         
2      291       175       28833     87        266       207       207       499       1         3         
4      1128      1046      28830     291       291       232       232       556       1         2         
2      1003      1005      28881     291       50        176       176       570       1         2         
2      500       440       28850     52        168       173       173       571       1         3         
1      553       717       28883     189       189       88        88        650       1         2         
1      772       698       28886     290       189       72        72        703       1         2         
2      902       577       28806     50        189       183       183       726       1         2         
2      416       499       28859     100       52        147       147       732       1         4         
1      345       497       28787     299       999       277       277       737       1         2         
1      191       46        28870     266       98        113       113       750       1         2         
1      873       771       28868     291       290       111       111       787       1         4         
2      435       499       28827     52        52        236       236       801       1         2         
3      972       575       28886     290       189       95        95        804       1         3         
1      894       937       28874     291       291       138.5     138.5     824       1         2         
3      745       905       28868     290       290       149       149       843       1         2         
1      418       694       28865     168       189       156       156       854       1         2         
1      1098      1637      28883     84        296       108       108       867       1         2         
1      620       663       28880     131       131       122       122       873       1         2         
1      443       602       28838     168       189       143       143       879       1         4         
3      1127      1048      28853     291       291       226       226       902       1         3         
2      258       578       28631     87        189       426       426       906       1         4         
1      137       673       28862     286       189       112       112       950       1         5         
1      349       499       28629     127       52        437       437       983       1         4         
1      349       374       28830     127       119       236       236       983       2         3         
2      466       554       28862     199       189       171       171       1002      1         2         
1      632       624       28871     189       189       110       110       1009      1         2         
1      350       482       28695     127       189       407       407       1041      1         2         
1      1213      1154      28866     129       129       165       165       1053      1         2         
3      759       670       28881     131       280       142       142       1069      1         3         
2      479       292       28845     52        87        212       212       1139      1         2         
1      498       172       28862     52        286       203       203       1187      1         2         
1      476       664       28820     52        131       257       257       1241      1         2         
1      348       366       28881     299       299       213       213       1248      1         2         
1      216       216       28800     178       178       250       250       1262      1         2         
1      766       827       28882     290       291       112       112       1275      1         4         
3      1005      972       28851     50        290       188       188       1355      2         4         
1      330       310       28789     127       127       314       314       1357      1         2         
1      310       556       28845     127       199       202       202       1377      1         3         
4      740       579       28831     50        189       152       152       1392      1         2         
1      332       675       28838     87        189       175       175       1414      1         4         
2      457       456       28863     52        52        187       187       1417      1         2         
1      761       981       28874     50        291       125       125       1429      1         2         
1      1047      716       28873     291       189       175       175       1447      1         4         
1      336       292       28737     277       87        295       295       1474      1         3         
1      723       747       28890     290       290       0         0         0         0         0         
1      189       600       28890     286       280       0         0         0         0         0         
1      895       673       28890     291       189       0         0         0         0         0         
1      778       44        28890     131       98        0         0         0         0         0         
1      1131      1106      28890     291       291       0         0         0         0         0         
1      630       399       28891     189       168       0         0         0         0         0         
1      979       648       28891     291       189       0         0         0         0         0         
1      325       116       28891     299       9         0         0         0         0         0         
1      526       556       28891     52        199       0         0         0         0         0         
1      782       789       28891     291       290       0         0         0         0         0         
1      772       903       28891     290       290       0         0         0         0         0         
2      783       696       28891     50        189       0         0         0         0         0         
1      441       745       28891     168       290       0         0         0         0         0         
1      441       510       28892     168       199       0         0         0         0         0         
1      621       720       28892     280       290       0         0         0         0         0         
1      991       722       28892     290       290       0         0         0         0         0         
3      993       1087      28892     84        291       0         0         0         0         0         
3      993       1087      28892     84        291       0         0         0         0         0         
3      389       548       28892     299       52        0         0         0         0         0         
3      389       548       28892     299       52        0         0         0         0         0         
3      462       827       28892     189       291       0         0         0         0         0         
2      462       827       28892     189       291       0         0         0         0         0         
3      393       969       28893     52        290       0         0         0         0         0         
1      947       674       28893     290       189       0         0         0         0         0         
2      853       670       28893     50        280       0         0         0         0         0         
2      435       310       28893     52        127       0         0         0         0         0         
1      804       697       28893     291       189       0         0         0         0         0         
1      526       603       28893     52        189       0         0         0         0         0         
2      914       665       28893     291       131       0         0         0         0         0         
2      863       46        28893     290       98        0         0         0         0         0         
3      863       46        28893     290       98        0         0         0         0         0         
1      990       649       28894     290       189       0         0         0         0         0         
1      197       215       28894     178       178       0         0         0         0         0         
1      608       451       28894     189       999       0         0         0         0         0         
1      772       675       28895     290       189       0         0         0         0         0         
2      479       356       28895     52        119       0         0         0         0         0         
1      556       737       28895     199       189       0         0         0         0         0         
1      119       192       28895     286       266       0         0         0         0         0         
1      434       581       28896     52        189       0         0         0         0         0         
1      1168      1075      28896     291       84        0         0         0         0         0         
1      460       501       28896     189       52        0         0         0         0         0         
3      395       722       28897     100       290       0         0         0         0         0         
2      829       1045      28897     50        291       0         0         0         0         0         
1      719       527       28897     189       52        0         0         0         0         0         
3      395       722       28897     100       290       0         0         0         0         0         
1      527       593       28898     52        52        0         0         0         0         0         
1      526       115       28898     52        9         0         0         0         0         0         
1      486       160       28898     199       54        0         0         0         0         0         
2      888       651       28898     290       189       0         0         0         0         0         
1      783       765       28898     50        290       0         0         0         0         0         
3      345       828       28898     299       291       0         0         0         0         0         
1      31        556       28898     9         199       0         0         0         0         0         
1      556       138       28898     199       57        0         0         0         0         0         
3      345       189       28898     299       286       0         0         0         0         0         
1      335       395       28898     119       100       0         0         0         0         0         
3      345       189       28898     299       286       0         0         0         0         0         
1      791       884       28898     290       290       0         0         0         0         0         
1      133       969       28899     9         290       0         0         0         0         0         
1      859       581       28899     290       189       0         0         0         0         0         
1      238       439       28899     87        189       0         0         0         0         0         
2      970       795       28899     290       290       0         0         0         0         0         
1      438       781       28899     100       291       0         0         0         0         0         
2      499       9         28899     52        98        0         0         0         0         0         
3      499       9         28899     52        98        0         0         0         0         0         
3      970       795       28899     290       290       0         0         0         0         0         
1      905       749       28899     290       290       0         0         0         0         0         
3      835       905       28900     290       290       0         0         0         0         0         
4      528       698       28900     52        189       0         0         0         0         0         
1      650       670       28900     189       280       0         0         0         0         0         
1      236       279       28900     87        87        0         0         0         0         0         
1      441       604       28900     168       189       0         0         0         0         0         
3      527       355       28900     52        119       0         0         0         0         0         
1      557       395       28900     189       100       0         0         0         0         0         
1      527       509       28900     52        199       0         0         0         0         0         
1      461       697       28900     189       189       0         0         0         0         0         
1      409       499       28900     52        52        0         0         0         0         0         
1      304       227       28900     299       266       0         0         0         0         0         
1      386       137       28900     299       286       0         0         0         0         0         
1      623       593       28901     280       52        0         0         0         0         0         
2      948       716       28901     290       189       0         0         0         0         0         
1      644       616       28901     131       131       0         0         0         0         0         
1      793       699       28901     290       290       0         0         0         0         0         
1      1172      1026      28901     129       291       0         0         0         0         0         
3      583       555       28902     189       199       0         0         0         0         0         
3      583       555       28902     189       199       0         0         0         0         0         
1      357       629       28902     277       189       0         0         0         0         0         
1      527       116       28902     52        9         0         0         0         0         0         
1      317       593       28902     277       52        0         0         0         0         0         
1      790       760       28902     290       291       0         0         0         0         0         
1      1005      738       28902     50        189       0         0         0         0         0         
1      859       947       28902     290       290       0         0         0         0         0         
1      1045      1188      28903     291       192       0         0         0         0         0         
3      154       228       28903     286       266       0         0         0         0         0         
3      154       228       28903     286       266       0         0         0         0         0         
1      252       970       28903     206       290       0         0         0         0         0         
1      275       80        28903     87        98        0         0         0         0         0         
1      772       772       28903     290       290       0         0         0         0         0         
1      656       604       28904     290       189       0         0         0         0         0         
1      740       702       28904     50        290       0         0         0         0         0         
1      963       652       28904     50        189       0         0         0         0         0         
1      982       959       28904     291       291       0         0         0         0         0         
3      835       672       28904     290       189       0         0         0         0         0         
2      835       672       28904     290       189       0         0         0         0         0         
1      747       47        28904     290       98        0         0         0         0         0         
1      881       1024      28904     290       291       0         0         0         0         0         
1      871       716       28904     291       189       0         0         0         0         0         
1      735       522       28905     131       52        0         0         0         0         0         
1      923       374       28905     290       119       0         0         0         0         0         
1      646       504       28905     280       52        0         0         0         0         0         
1      31        21        28905     9         98        0         0         0         0         0         
1      463       1053      28905     168       84        0         0         0         0         0         
1      739       535       28906     189       189       0         0         0         0         0         
1      533       421       28906     199       168       0         0         0         0         0         
1      1015      772       28906     84        290       0         0         0         0         0         
1      1128      748       28906     291       290       0         0         0         0         0         
1      348       578       28906     299       189       0         0         0         0         0         
1      1022      439       28906     291       189       0         0         0         0         0         
1      291       152       28906     87        9         0         0         0         0         0         
1      651       599       28906     189       280       0         0         0         0         0         
1      781       134       28907     291       9         0         0         0         0         0         
1      771       632       28907     290       189       0         0         0         0         0         
1      1167      1075      28907     291       84        0         0         0         0         0         
2      771       841       28907     290       290       0         0         0         0         0         
1      760       651       28907     291       189       0         0         0         0         0         
1      738       676       28907     189       189       0         0         0         0         0         
1      375       434       28907     119       52        0         0         0         0         0         
1      726       782       28907     290       291       0         0         0         0         0         
4      274       134       28908     87        9         0         0         0         0         0         
2      488       725       28908     199       290       0         0         0         0         0         
3      488       725       28908     199       290       0         0         0         0         0         
4      654       136       28909     189       286       0         0         0         0         0         
1      440       557       28909     168       189       0         0         0         0         0         
1      790       738       28909     290       189       0         0         0         0         0         
1      739       511       28909     189       199       0         0         0         0         0         
1      766       837       28910     290       290       0         0         0         0         0         
1      894       553       28910     291       189       0         0         0         0         0         
1      466       556       28910     199       199       0         0         0         0         0         
3      474       554       28911     52        189       0         0         0         0         0         
3      789       652       28911     290       189       0         0         0         0         0         
3      692       607       28911     280       189       0         0         0         0         0         
1      434       510       28911     52        199       0         0         0         0         0         
2      692       607       28911     280       189       0         0         0         0         0         
2      474       554       28911     52        189       0         0         0         0         0         
2      605       818       28911     189       290       0         0         0         0         0         
1      761       968       28911     50        290       0         0         0         0         0         
1      670       737       28911     280       189       0         0         0         0         0         
3      789       652       28911     290       189       0         0         0         0         0         
3      534       652       28911     199       189       0         0         0         0         0         
1      388       171       28912     299       286       0         0         0         0         0         
1      549       1201      28912     52        84        0         0         0         0         0         
3      702       840       28912     290       290       0         0         0         0         0         
3      702       840       28912     290       290       0         0         0         0         0         
2      392       392       28912     52        52        0         0         0         0         0         
3      392       392       28912     52        52        0         0         0         0         0         
2      842       668       28913     290       280       0         0         0         0         0         
3      842       668       28913     290       280       0         0         0         0         0         
1      664       211       28913     131       266       0         0         0         0         0         
1      676       1005      28913     189       50        0         0         0         0         0         
1      556       552       28913     199       189       0         0         0         0         0         
1      1250      621       28913     129       280       0         0         0         0         0         
3      545       795       28914     52        290       0         0         0         0         0         
2      621       698       28914     280       189       0         0         0         0         0         
1      436       699       28914     100       290       0         0         0         0         0         
1      608       719       28914     189       189       0         0         0         0         0         
1      550       719       28915     189       189       0         0         0         0         0         
1      393       377       28915     52        168       0         0         0         0         0         
1      369       555       28915     52        199       0         0         0         0         0         
1      10        556       28915     98        199       0         0         0         0         0         
3      835       378       28915     290       168       0         0         0         0         0         
3      1026      1151      28916     291       291       0         0         0         0         0         
1      894       905       28916     291       290       0         0         0         0         0         
3      695       626       28916     189       189       0         0         0         0         0         
3      842       355       28916     290       119       0         0         0         0         0         
1      702       842       28916     290       290       0         0         0         0         0         
1      671       760       28916     280       291       0         0         0         0         0         
1      679       498       28916     290       52        0         0         0         0         0         
1      527       138       28916     52        57        0         0         0         0         0         
3      1026      1151      28916     291       291       0         0         0         0         0         
1      749       693       28916     290       280       0         0         0         0         0         
3      366       558       28917     299       189       0         0         0         0         0         
3      366       558       28917     299       189       0         0         0         0         0         
1      1437      1437      28917     129       129       0         0         0         0         0         
1      356       399       28917     119       168       0         0         0         0         0         
1      650       480       28917     189       52        0         0         0         0         0         
1      880       861       28917     50        290       0         0         0         0         0         
1      527       415       28918     52        100       0         0         0         0         0         
2      526       689       28918     52        131       0         0         0         0         0         
1      743       903       28918     290       290       0         0         0         0         0         
1      421       607       28918     168       189       0         0         0         0         0         
1      208       523       28918     286       52        0         0         0         0         0         
1      508       686       28918     199       131       0         0         0         0         0         
1      891       745       28918     291       290       0         0         0         0         0         
3      621       697       28919     280       189       0         0         0         0         0         
3      621       697       28919     280       189       0         0         0         0         0         
1      324       436       28919     299       100       0         0         0         0         0         
1      352       531       28919     119       189       0         0         0         0         0         
1      1225      1032      28919     192       84        0         0         0         0         0         
1      527       696       28919     52        189       0         0         0         0         0         
1      133       189       28919     9         286       0         0         0         0         0         
